(declare-const a Real)
(declare-const b Real)
(declare-const c Real)
(assert (= (* a b c) 1))
(assert (> a 0))
(assert (> b 0))
(assert (> c 0))
(assert (not (<= (+ (* -2048 (pow b 4)) (* -1024 (pow a 4)) (* 48 (pow (+ a b) 4)) (* 1536 (pow (+ (* (/ 5 12) a) (* (/ 7 12) b)) 4)) (* -2048 (pow a (pow 3 -1)) (pow b (/ 11 3))) (* -1024 (pow a (/ 10 3)) (pow b (/ 2 3))) (* 768 (pow a (/ 2 3)) (pow b (/ 10 3))) (* 1536 a (pow b 3)) (* 1536 (pow a (/ 4 3)) (pow b (/ 8 3)))) 0)))
(check-sat)
(get-model)
(exit)